generated by phonopy
   1.0
     3.7898148013457922   -2.1878705389153525    0.0000000000000000
     3.7898148013457922    2.1878705389153525    0.0000000000000000
    -0.0140717039145771    0.0000000000000000   21.3528180140240806
Bi Sb Te
   2    2    6
Direct
  0.6363687741259999  0.6363687741260001  0.6067776197610000
  0.3040714776210001  0.3040714776210001  0.1066851917600000
  0.9711580493965001  0.9711580493965001  0.2964863687040000
  0.9702790588940000  0.9702790588940000  0.7965785381679999
  0.6376378221259998  0.6376378221260001  0.2046289066680000
  0.3034603636300000  0.3034603636300000  0.7047248024780000
  0.3046237012169999  0.3046237012169999  0.3750329179750000
  0.9706130567015000  0.9706130567015000  0.0244816017510000
  0.6371805005565000  0.6371805005565002  0.8751259271370000
  0.9696189348870000  0.9696189348870000  0.5245768855980000
